p cnf 232 1110
139 140 144 0
115 133 0
125 128 136 0
122 134 141 148 0
118 150 226 230 0
143 145 153 156 157 190 0
88 91 105 160 0
86 161 170 0
79 82 196 0
114 116 165 0
109 111 159 205 0
103 121 126 0
100 102 117 146 0
98 119 147 0
96 130 208 0
89 93 104 218 0
78 80 84 172 0
174 177 179 0
113 167 181 0
106 127 182 0
123 135 142 184 185 0
149 168 187 227 0
188 191 0
162 171 192 0
83 85 87 194 195 0
175 178 180 197 0
198 199 200 202 0
107 203 204 206 0
152 158 207 0
132 189 0
209 210 211 213 214 0
92 94 216 217 219 0
221 223 0
108 224 0
124 183 186 0
137 225 0
228 231 0
75 77 232 0
71 72 73 0
70 81 0
65 66 67 69 0
64 110 164 0
95 129 0
61 63 212 0
-60 -91 0
-91 -170 0
-82 -91 0
-59 -91 0
-91 -111 0
-60 -170 0
-60 -82 0
-59 -60 0
-60 -111 0
-82 -170 0
-59 -170 0
-111 -170 0
-59 -82 0
-82 -111 0
-59 -111 0
-102 -147 0
-102 -130 0
-62 -102 0
-93 -102 0
-102 -220 0
-130 -147 0
-62 -147 0
-93 -147 0
-147 -220 0
-62 -130 0
-93 -130 0
-130 -220 0
-62 -93 0
-62 -220 0
-93 -220 0
-84 -174 0
-84 -167 0
-84 -106 0
-84 -185 0
-84 -229 0
-167 -174 0
-106 -174 0
-174 -185 0
-174 -229 0
-106 -167 0
-167 -185 0
-167 -229 0
-106 -185 0
-106 -229 0
-185 -229 0
-57 -58 0
-58 -74 0
-58 -192 0
-58 -194 0
-58 -198 0
-57 -74 0
-57 -192 0
-57 -194 0
-57 -198 0
-74 -192 0
-74 -194 0
-74 -198 0
-192 -194 0
-192 -198 0
-194 -198 0
-55 -56 0
-54 -56 0
-53 -56 0
-56 -224 0
-56 -137 0
-54 -55 0
-53 -55 0
-55 -224 0
-55 -137 0
-53 -54 0
-54 -224 0
-54 -137 0
-53 -224 0
-53 -137 0
-137 -224 0
-69 -164 0
-52 -69 0
-51 -69 0
-50 -69 0
-69 -212 0
-52 -164 0
-51 -164 0
-50 -164 0
-164 -212 0
-51 -52 0
-50 -52 0
-52 -212 0
-50 -51 0
-51 -212 0
-50 -212 0
-91 -102 0
-84 -91 0
-58 -91 0
-56 -91 0
-69 -91 0
-84 -102 0
-58 -102 0
-56 -102 0
-69 -102 0
-58 -84 0
-56 -84 0
-69 -84 0
-56 -58 0
-58 -69 0
-56 -69 0
-60 -147 0
-60 -174 0
-57 -60 0
-55 -60 0
-60 -164 0
-147 -174 0
-57 -147 0
-55 -147 0
-147 -164 0
-57 -174 0
-55 -174 0
-164 -174 0
-55 -57 0
-57 -164 0
-55 -164 0
-130 -170 0
-167 -170 0
-74 -170 0
-54 -170 0
-52 -170 0
-130 -167 0
-74 -130 0
-54 -130 0
-52 -130 0
-74 -167 0
-54 -167 0
-52 -167 0
-54 -74 0
-52 -74 0
-52 -54 0
-62 -82 0
-82 -106 0
-82 -192 0
-53 -82 0
-51 -82 0
-62 -106 0
-62 -192 0
-53 -62 0
-51 -62 0
-106 -192 0
-53 -106 0
-51 -106 0
-53 -192 0
-51 -192 0
-51 -53 0
-59 -93 0
-59 -185 0
-59 -194 0
-59 -224 0
-50 -59 0
-93 -185 0
-93 -194 0
-93 -224 0
-50 -93 0
-185 -194 0
-185 -224 0
-50 -185 0
-194 -224 0
-50 -194 0
-50 -224 0
-111 -220 0
-111 -229 0
-111 -198 0
-111 -137 0
-111 -212 0
-220 -229 0
-198 -220 0
-137 -220 0
-212 -220 0
-198 -229 0
-137 -229 0
-212 -229 0
-137 -198 0
-198 -212 0
-137 -212 0
-98 -100 0
-96 -100 0
-89 -100 0
-49 -100 0
-100 -222 0
-96 -98 0
-89 -98 0
-49 -98 0
-98 -222 0
-89 -96 0
-49 -96 0
-96 -222 0
-49 -89 0
-89 -222 0
-49 -222 0
-80 -177 0
-80 -113 0
-80 -123 0
-80 -149 0
-48 -80 0
-113 -177 0
-123 -177 0
-149 -177 0
-48 -177 0
-113 -123 0
-113 -149 0
-48 -113 0
-123 -149 0
-48 -123 0
-48 -149 0
-46 -47 0
-45 -47 0
-47 -87 0
-47 -175 0
-47 -199 0
-45 -46 0
-46 -87 0
-46 -175 0
-46 -199 0
-45 -87 0
-45 -175 0
-45 -199 0
-87 -175 0
-87 -199 0
-175 -199 0
-107 -120 0
-107 -207 0
-107 -209 0
-107 -216 0
-44 -107 0
-120 -207 0
-120 -209 0
-120 -216 0
-44 -120 0
-207 -209 0
-207 -216 0
-44 -207 0
-209 -216 0
-44 -209 0
-44 -216 0
-42 -43 0
-43 -90 0
-43 -73 0
-43 -169 0
-43 -81 0
-42 -90 0
-42 -73 0
-42 -169 0
-42 -81 0
-73 -90 0
-90 -169 0
-81 -90 0
-73 -169 0
-73 -81 0
-81 -169 0
-67 -110 0
-67 -101 0
-41 -67 0
-67 -129 0
-63 -67 0
-101 -110 0
-41 -110 0
-110 -129 0
-63 -110 0
-41 -101 0
-101 -129 0
-63 -101 0
-41 -129 0
-41 -63 0
-63 -129 0
-80 -100 0
-47 -100 0
-100 -107 0
-43 -100 0
-67 -100 0
-47 -80 0
-80 -107 0
-43 -80 0
-67 -80 0
-47 -107 0
-43 -47 0
-47 -67 0
-43 -107 0
-67 -107 0
-43 -67 0
-98 -177 0
-46 -98 0
-98 -120 0
-42 -98 0
-98 -110 0
-46 -177 0
-120 -177 0
-42 -177 0
-110 -177 0
-46 -120 0
-42 -46 0
-46 -110 0
-42 -120 0
-110 -120 0
-42 -110 0
-96 -113 0
-45 -96 0
-96 -207 0
-90 -96 0
-96 -101 0
-45 -113 0
-113 -207 0
-90 -113 0
-101 -113 0
-45 -207 0
-45 -90 0
-45 -101 0
-90 -207 0
-101 -207 0
-90 -101 0
-89 -123 0
-87 -89 0
-89 -209 0
-73 -89 0
-41 -89 0
-87 -123 0
-123 -209 0
-73 -123 0
-41 -123 0
-87 -209 0
-73 -87 0
-41 -87 0
-73 -209 0
-41 -209 0
-41 -73 0
-49 -149 0
-49 -175 0
-49 -216 0
-49 -169 0
-49 -129 0
-149 -175 0
-149 -216 0
-149 -169 0
-129 -149 0
-175 -216 0
-169 -175 0
-129 -175 0
-169 -216 0
-129 -216 0
-129 -169 0
-48 -222 0
-199 -222 0
-44 -222 0
-81 -222 0
-63 -222 0
-48 -199 0
-44 -48 0
-48 -81 0
-48 -63 0
-44 -199 0
-81 -199 0
-63 -199 0
-44 -81 0
-44 -63 0
-63 -81 0
-115 -144 0
-128 -144 0
-134 -144 0
-118 -144 0
-144 -153 0
-40 -144 0
-115 -128 0
-115 -134 0
-115 -118 0
-115 -153 0
-40 -115 0
-128 -134 0
-118 -128 0
-128 -153 0
-40 -128 0
-118 -134 0
-134 -153 0
-40 -134 0
-118 -153 0
-40 -118 0
-40 -153 0
-39 -88 0
-88 -161 0
-79 -88 0
-38 -88 0
-88 -116 0
-88 -109 0
-39 -161 0
-39 -79 0
-38 -39 0
-39 -116 0
-39 -109 0
-79 -161 0
-38 -161 0
-116 -161 0
-109 -161 0
-38 -79 0
-79 -116 0
-79 -109 0
-38 -116 0
-38 -109 0
-109 -116 0
-36 -37 0
-35 -37 0
-37 -171 0
-37 -83 0
-37 -178 0
-37 -200 0
-35 -36 0
-36 -171 0
-36 -83 0
-36 -178 0
-36 -200 0
-35 -171 0
-35 -83 0
-35 -178 0
-35 -200 0
-83 -171 0
-171 -178 0
-171 -200 0
-83 -178 0
-83 -200 0
-178 -200 0
-34 -203 0
-152 -203 0
-132 -203 0
-203 -210 0
-94 -203 0
-33 -203 0
-34 -152 0
-34 -132 0
-34 -210 0
-34 -94 0
-33 -34 0
-132 -152 0
-152 -210 0
-94 -152 0
-33 -152 0
-132 -210 0
-94 -132 0
-33 -132 0
-94 -210 0
-33 -210 0
-33 -94 0
-31 -32 0
-29 -32 0
-28 -32 0
-32 -108 0
-32 -183 0
-32 -225 0
-29 -31 0
-28 -31 0
-31 -108 0
-31 -183 0
-31 -225 0
-28 -29 0
-29 -108 0
-29 -183 0
-29 -225 0
-28 -108 0
-28 -183 0
-28 -225 0
-108 -183 0
-108 -225 0
-183 -225 0
-26 -27 0
-25 -27 0
-27 -232 0
-27 -72 0
-24 -27 0
-27 -70 0
-25 -26 0
-26 -232 0
-26 -72 0
-24 -26 0
-26 -70 0
-25 -232 0
-25 -72 0
-24 -25 0
-25 -70 0
-72 -232 0
-24 -232 0
-70 -232 0
-24 -72 0
-70 -72 0
-24 -70 0
-64 -66 0
-66 -99 0
-66 -97 0
-23 -66 0
-66 -95 0
-61 -66 0
-64 -99 0
-64 -97 0
-23 -64 0
-64 -95 0
-61 -64 0
-97 -99 0
-23 -99 0
-95 -99 0
-61 -99 0
-23 -97 0
-95 -97 0
-61 -97 0
-23 -95 0
-23 -61 0
-61 -95 0
-88 -144 0
-37 -144 0
-144 -203 0
-32 -144 0
-27 -144 0
-66 -144 0
-37 -88 0
-88 -203 0
-32 -88 0
-27 -88 0
-66 -88 0
-37 -203 0
-32 -37 0
-27 -37 0
-37 -66 0
-32 -203 0
-27 -203 0
-66 -203 0
-27 -32 0
-32 -66 0
-27 -66 0
-39 -115 0
-36 -115 0
-34 -115 0
-31 -115 0
-26 -115 0
-64 -115 0
-36 -39 0
-34 -39 0
-31 -39 0
-26 -39 0
-39 -64 0
-34 -36 0
-31 -36 0
-26 -36 0
-36 -64 0
-31 -34 0
-26 -34 0
-34 -64 0
-26 -31 0
-31 -64 0
-26 -64 0
-128 -161 0
-35 -128 0
-128 -152 0
-29 -128 0
-25 -128 0
-99 -128 0
-35 -161 0
-152 -161 0
-29 -161 0
-25 -161 0
-99 -161 0
-35 -152 0
-29 -35 0
-25 -35 0
-35 -99 0
-29 -152 0
-25 -152 0
-99 -152 0
-25 -29 0
-29 -99 0
-25 -99 0
-79 -134 0
-134 -171 0
-132 -134 0
-28 -134 0
-134 -232 0
-97 -134 0
-79 -171 0
-79 -132 0
-28 -79 0
-79 -232 0
-79 -97 0
-132 -171 0
-28 -171 0
-171 -232 0
-97 -171 0
-28 -132 0
-132 -232 0
-97 -132 0
-28 -232 0
-28 -97 0
-97 -232 0
-38 -118 0
-83 -118 0
-118 -210 0
-108 -118 0
-72 -118 0
-23 -118 0
-38 -83 0
-38 -210 0
-38 -108 0
-38 -72 0
-23 -38 0
-83 -210 0
-83 -108 0
-72 -83 0
-23 -83 0
-108 -210 0
-72 -210 0
-23 -210 0
-72 -108 0
-23 -108 0
-23 -72 0
-116 -153 0
-153 -178 0
-94 -153 0
-153 -183 0
-24 -153 0
-95 -153 0
-116 -178 0
-94 -116 0
-116 -183 0
-24 -116 0
-95 -116 0
-94 -178 0
-178 -183 0
-24 -178 0
-95 -178 0
-94 -183 0
-24 -94 0
-94 -95 0
-24 -183 0
-95 -183 0
-24 -95 0
-40 -109 0
-40 -200 0
-33 -40 0
-40 -225 0
-40 -70 0
-40 -61 0
-109 -200 0
-33 -109 0
-109 -225 0
-70 -109 0
-61 -109 0
-33 -200 0
-200 -225 0
-70 -200 0
-61 -200 0
-33 -225 0
-33 -70 0
-33 -61 0
-70 -225 0
-61 -225 0
-61 -70 0
-22 -140 0
-22 -133 0
-22 -226 0
-22 -156 0
-21 -22 0
-133 -140 0
-140 -226 0
-140 -156 0
-21 -140 0
-133 -226 0
-133 -156 0
-21 -133 0
-156 -226 0
-21 -226 0
-21 -156 0
-20 -105 0
-20 -76 0
-19 -20 0
-20 -114 0
-20 -159 0
-76 -105 0
-19 -105 0
-105 -114 0
-105 -159 0
-19 -76 0
-76 -114 0
-76 -159 0
-19 -114 0
-19 -159 0
-114 -159 0
-117 -126 0
-119 -126 0
-126 -218 0
-18 -126 0
-16 -126 0
-117 -119 0
-117 -218 0
-18 -117 0
-16 -117 0
-119 -218 0
-18 -119 0
-16 -119 0
-18 -218 0
-16 -218 0
-16 -18 0
-15 -78 0
-15 -179 0
-15 -184 0
-15 -187 0
-14 -15 0
-78 -179 0
-78 -184 0
-78 -187 0
-14 -78 0
-179 -184 0
-179 -187 0
-14 -179 0
-184 -187 0
-14 -184 0
-14 -187 0
-13 -188 0
-12 -188 0
-188 -195 0
-188 -197 0
-188 -202 0
-12 -13 0
-13 -195 0
-13 -197 0
-13 -202 0
-12 -195 0
-12 -197 0
-12 -202 0
-195 -197 0
-195 -202 0
-197 -202 0
-11 -204 0
-10 -11 0
-11 -211 0
-11 -92 0
-9 -11 0
-10 -204 0
-204 -211 0
-92 -204 0
-9 -204 0
-10 -211 0
-10 -92 0
-9 -10 0
-92 -211 0
-9 -211 0
-9 -92 0
-20 -22 0
-22 -126 0
-15 -22 0
-22 -188 0
-11 -22 0
-20 -126 0
-15 -20 0
-20 -188 0
-11 -20 0
-15 -126 0
-126 -188 0
-11 -126 0
-15 -188 0
-11 -15 0
-11 -188 0
-105 -140 0
-117 -140 0
-78 -140 0
-13 -140 0
-140 -204 0
-105 -117 0
-78 -105 0
-13 -105 0
-105 -204 0
-78 -117 0
-13 -117 0
-117 -204 0
-13 -78 0
-78 -204 0
-13 -204 0
-76 -133 0
-119 -133 0
-133 -179 0
-12 -133 0
-10 -133 0
-76 -119 0
-76 -179 0
-12 -76 0
-10 -76 0
-119 -179 0
-12 -119 0
-10 -119 0
-12 -179 0
-10 -179 0
-10 -12 0
-19 -226 0
-218 -226 0
-184 -226 0
-195 -226 0
-211 -226 0
-19 -218 0
-19 -184 0
-19 -195 0
-19 -211 0
-184 -218 0
-195 -218 0
-211 -218 0
-184 -195 0
-184 -211 0
-195 -211 0
-114 -156 0
-18 -156 0
-156 -187 0
-156 -197 0
-92 -156 0
-18 -114 0
-114 -187 0
-114 -197 0
-92 -114 0
-18 -187 0
-18 -197 0
-18 -92 0
-187 -197 0
-92 -187 0
-92 -197 0
-21 -159 0
-16 -21 0
-14 -21 0
-21 -202 0
-9 -21 0
-16 -159 0
-14 -159 0
-159 -202 0
-9 -159 0
-14 -16 0
-16 -202 0
-9 -16 0
-14 -202 0
-9 -14 0
-9 -202 0
-139 -173 0
-122 -173 0
-173 -230 0
-143 -173 0
-122 -139 0
-139 -230 0
-139 -143 0
-122 -230 0
-122 -143 0
-143 -230 0
-103 -146 0
-8 -103 0
-103 -104 0
-7 -103 0
-8 -146 0
-104 -146 0
-7 -146 0
-8 -104 0
-7 -8 0
-7 -104 0
-6 -191 0
-162 -191 0
-85 -191 0
-180 -191 0
-6 -162 0
-6 -85 0
-6 -180 0
-85 -162 0
-162 -180 0
-85 -180 0
-163 -206 0
-163 -189 0
-163 -213 0
-163 -217 0
-189 -206 0
-206 -213 0
-206 -217 0
-189 -213 0
-189 -217 0
-213 -217 0
-155 -228 0
-77 -228 0
-71 -228 0
-4 -228 0
-77 -155 0
-71 -155 0
-4 -155 0
-71 -77 0
-4 -77 0
-4 -71 0
-103 -173 0
-173 -191 0
-163 -173 0
-173 -228 0
-103 -191 0
-103 -163 0
-103 -228 0
-163 -191 0
-191 -228 0
-163 -228 0
-139 -146 0
-6 -139 0
-139 -206 0
-139 -155 0
-6 -146 0
-146 -206 0
-146 -155 0
-6 -206 0
-6 -155 0
-155 -206 0
-8 -122 0
-122 -162 0
-122 -189 0
-77 -122 0
-8 -162 0
-8 -189 0
-8 -77 0
-162 -189 0
-77 -162 0
-77 -189 0
-104 -230 0
-85 -230 0
-213 -230 0
-71 -230 0
-85 -104 0
-104 -213 0
-71 -104 0
-85 -213 0
-71 -85 0
-71 -213 0
-7 -143 0
-143 -180 0
-143 -217 0
-4 -143 0
-7 -180 0
-7 -217 0
-4 -7 0
-180 -217 0
-4 -180 0
-4 -217 0
-125 -176 0
-148 -176 0
-157 -176 0
-125 -148 0
-125 -157 0
-148 -157 0
-121 -208 0
-121 -215 0
-3 -121 0
-208 -215 0
-3 -208 0
-3 -215 0
-138 -221 0
-166 -221 0
-186 -221 0
-138 -166 0
-138 -186 0
-166 -186 0
-2 -231 0
-75 -231 0
-193 -231 0
-2 -75 0
-2 -193 0
-75 -193 0
-121 -176 0
-176 -221 0
-176 -231 0
-121 -221 0
-121 -231 0
-221 -231 0
-125 -208 0
-125 -138 0
-2 -125 0
-138 -208 0
-2 -208 0
-2 -138 0
-148 -215 0
-148 -166 0
-75 -148 0
-166 -215 0
-75 -215 0
-75 -166 0
-3 -157 0
-157 -186 0
-157 -193 0
-3 -186 0
-3 -193 0
-186 -193 0
-1 -141 0
-1 -145 0
-141 -145 0
-30 -182 0
-30 -168 0
-168 -182 0
-112 -223 0
-124 -223 0
-112 -124 0
-1 -30 0
-1 -223 0
-30 -223 0
-141 -182 0
-112 -141 0
-112 -182 0
-145 -168 0
-124 -145 0
-124 -168 0
-160 -196 0
-160 -201 0
-196 -201 0
-127 -172 0
-135 -172 0
-127 -135 0
-65 -151 0
-65 -131 0
-131 -151 0
-160 -172 0
-65 -160 0
-65 -172 0
-127 -196 0
-151 -196 0
-127 -151 0
-135 -201 0
-131 -201 0
-131 -135 0
-136 -150 0
-136 -190 0
-5 -136 0
-150 -190 0
-5 -150 0
-5 -190 0
-68 -86 0
-86 -165 0
-86 -205 0
-68 -165 0
-68 -205 0
-165 -205 0
-142 -181 0
-181 -227 0
-154 -181 0
-142 -227 0
-142 -154 0
-154 -227 0
-158 -214 0
-158 -219 0
-17 -158 0
-214 -219 0
-17 -214 0
-17 -219 0
-86 -136 0
-136 -181 0
-136 -158 0
-86 -181 0
-86 -158 0
-158 -181 0
-68 -150 0
-142 -150 0
-150 -214 0
-68 -142 0
-68 -214 0
-142 -214 0
-165 -190 0
-190 -227 0
-190 -219 0
-165 -227 0
-165 -219 0
-219 -227 0
-5 -205 0
-5 -154 0
-5 -17 0
-154 -205 0
-17 -205 0
-17 -154 0
